[2026-03-23T13:39:45.804Z] Pipeline "set_exp_2_exp_2_n026_c008_g001" → 2026_03_23_13_39_45_set_exp_2_exp_2_n026_c008_g001_max.sol
Set parameter WLSAccessID
Set parameter WLSSecret
Set parameter LicenseID to value 2792458
Set parameter LogFile to value "gurobi.log"
Using license file /root/gurobi.lic
Academic license 2792458 - for non-commercial use only - registered to an___@studenti.unipg.it

Gurobi Optimizer version 13.0.1 build v13.0.1rc0 (linux64 - "Ubuntu 24.04.4 LTS")
Copyright (c) 2026, Gurobi Optimization, LLC

Warning: Duplicate section found (read 'binary') - Is a variable name equal to an LP file format keyword?
Warning: Duplicate section found (read 'binary') - Is a variable name equal to an LP file format keyword?
Warning: Duplicate section found (read 'binary') - Is a variable name equal to an LP file format keyword?
Warning: Duplicate section found (read 'binary') - Is a variable name equal to an LP file format keyword?
Warning: Duplicate section found (read 'binary') - Is a variable name equal to an LP file format keyword?
Warning: Duplicate section found (read 'binary') - Is a variable name equal to an LP file format keyword?
Warning: Duplicate section found (read 'binary') - Is a variable name equal to an LP file format keyword?
Warning: Duplicate section found (read 'binary') - Is a variable name equal to an LP file format keyword?
Warning: Duplicate section found (read 'binary') - Is a variable name equal to an LP file format keyword?
Warning: Duplicate section found (read 'binary') - Is a variable name equal to an LP file format keyword?
Warning: Further warnings of this type will be omitted.
Read LP format model from file /root/bgw/data/uploads/2026_03_23_13_39_45_set_exp_2_exp_2_n026_c008_g001_max.lp
Reading time = 0.00 seconds
: 6098 rows, 529 columns, 18036 nonzeros

Using Gurobi shared library /opt/gurobi1301/linux64/lib/libgurobi.so.13.0.1

CPU model: AMD EPYC-Genoa Processor, instruction set [SSE2|AVX|AVX2|AVX512]
Thread count: 16 physical cores, 16 logical processors, using up to 16 threads

Academic license 2792458 - for non-commercial use only - registered to an___@studenti.unipg.it
Optimize a model with 6098 rows, 529 columns and 18036 nonzeros (Max)
Model fingerprint: 0x13f92e51
Model has 8 linear objective coefficients
Variable types: 34 continuous, 495 integer (495 binary)
Coefficient statistics:
  Matrix range     [1e+00, 3e+01]
  Objective range  [1e+00, 1e+00]
  Bounds range     [1e+00, 1e+00]
  RHS range        [1e+00, 3e+01]

Found heuristic solution: objective 8.0000000
Presolve removed 843 rows and 170 columns
Presolve time: 0.02s
Presolved: 5255 rows, 359 columns, 16064 nonzeros
Variable types: 0 continuous, 359 integer (346 binary)
Found heuristic solution: objective 9.0000000

Root relaxation: objective 3.200000e+01, 656 iterations, 0.04 seconds (0.06 work units)

    Nodes    |    Current Node    |     Objective Bounds      |     Work
 Expl Unexpl |  Obj  Depth IntInf | Incumbent    BestBd   Gap | It/Node Time

     0     0   32.00000    0   81    9.00000   32.00000   256%     -    0s
H    0     0                      10.0000000   32.00000   220%     -    0s
H    0     0                      14.0000000   32.00000   129%     -    0s
H    0     0                      15.0000000   32.00000   113%     -    0s
H    0     0                      17.0000000   32.00000  88.2%     -    0s
H    0     0                      18.0000000   32.00000  77.8%     -    0s
H    0     0                      19.0000000   32.00000  68.4%     -    0s
     0     0   32.00000    0   81   19.00000   32.00000  68.4%     -    0s
H    0     0                      22.0000000   32.00000  45.5%     -    0s
     0     0   32.00000    0   81   22.00000   32.00000  45.5%     -    0s
     0     0   32.00000    0   81   22.00000   32.00000  45.5%     -    0s
     0     0   32.00000    0   68   22.00000   32.00000  45.5%     -    0s
     0     0   32.00000    0   85   22.00000   32.00000  45.5%     -    0s
     0     0   32.00000    0   69   22.00000   32.00000  45.5%     -    0s
     0     0   32.00000    0   69   22.00000   32.00000  45.5%     -    0s
     0     0   32.00000    0   69   22.00000   32.00000  45.5%     -    0s
H    0     0                      23.0000000   32.00000  39.1%     -    0s
     0     0   32.00000    0   71   23.00000   32.00000  39.1%     -    0s
     0     0   32.00000    0   71   23.00000   32.00000  39.1%     -    0s
     0     0   32.00000    0   72   23.00000   32.00000  39.1%     -    0s
     0     0   32.00000    0   70   23.00000   32.00000  39.1%     -    0s
     0     0   32.00000    0   70   23.00000   32.00000  39.1%     -    0s
     0     0   32.00000    0   70   23.00000   32.00000  39.1%     -    0s
     0     0   32.00000    0   70   23.00000   32.00000  39.1%     -    0s
     0     0   32.00000    0   70   23.00000   32.00000  39.1%     -    0s
     0     0   32.00000    0   70   23.00000   32.00000  39.1%     -    0s
     0     2   32.00000    0   70   23.00000   32.00000  39.1%     -    0s
  2196   959   25.61458   28   51   23.00000   31.85417  38.5%   194    5s
  4449  1652   26.95833   28   81   23.00000   30.92361  34.5%   207   10s
  8732  1478 infeasible   33        23.00000   28.92708  25.8%   177   15s
 13415  2076   25.91250   33   62   23.00000   28.00000  21.7%   169   20s
 20088  2033 infeasible   32        23.00000   27.00000  17.4%   166   25s
 26652  1090     cutoff   33        23.00000   26.00000  13.0%   167   30s

Cutting planes:
  Cover: 1
  Inf proof: 4

Explored 29891 nodes (4990601 simplex iterations) in 32.21 seconds (65.83 work units)
Thread count was 16 (of 16 available processors)

Solution count 10: 23 23 23 ... 14

Optimal solution found (tolerance 1.00e-04)
Best objective 2.300000000000e+01, best bound 2.300000000000e+01, gap 0.0000%

Wrote result file '/root/bgw/data/results/2026_03_23_13_39_45_set_exp_2_exp_2_n026_c008_g001_max.sol'

